4
23
0 53 26 4 25 55 54 76 50 79 33 81 9 20 30 70 51 78 34 35 71 66 65
25
0 94 92 37 42 14 38 44 85 5 60 89 52 27 69 1 31 88 62 10 32 90 63 11 64
25
0 6 18 28 12 80 68 77 3 29 24 39 67 23 56 75 72 21 73 74 22 41 57 15 43
31
0 40 58 13 2 87 97 95 96 99 59 98 93 100 91 61 16 86 17 84 83 45 46 8 82 7 48 47 19 49 36
